language ESSENCE' 1.0

letting jobs = 102
letting horizon = 798
letting resourcesRenew = 2
letting resourcesNonrenew = 2
letting resourceLimits = [22, 27, 396, 394]
letting successors = [[2, 3, 4, 5, 6, 7, 8, 9, 10, 14, 16, 21], [23, 19, 18, 13, 12], [23, 20, 19, 17, 15, 13], [25, 23, 22, 18, 15, 12], [26, 18, 11], [27, 25, 23, 22, 20, 17], [32, 31, 30, 24, 22, 20, 15], [41, 33, 32, 31, 30, 26, 20, 19], [28, 26, 25, 23, 17], [31, 29, 23, 22, 18], [41, 34, 31, 30, 28, 27, 25, 24, 23], [43, 41, 40, 38, 31, 30, 28, 27, 24], [40, 38, 35, 33, 32, 30, 28, 26, 25], [43, 41, 40, 36, 34, 33, 32, 28, 24], [43, 41, 40, 36, 33, 29, 28, 26], [43, 41, 38, 35, 33, 31, 29, 28], [43, 41, 40, 39, 33, 31, 24], [41, 34, 33, 20], [47, 46, 42, 39, 38, 37, 35, 29], [47, 43, 42, 40, 36, 28], [40, 39, 35, 33, 29], [42, 40, 35, 26], [48, 44, 39, 38, 36, 33], [47, 46, 37, 35, 29], [51, 47, 46, 43, 42, 39, 36], [47, 44, 39, 37, 34], [51, 45, 39, 36, 33], [57, 48, 46, 44, 39, 37], [57, 53, 49, 48, 45, 44], [57, 53, 52, 50, 49, 46, 44], [57, 56, 55, 51, 48, 36], [53, 46, 45, 39], [56, 54, 53, 47, 42], [61, 57, 56, 55, 49, 45], [61, 56, 55, 54, 53, 52, 49], [61, 54, 53, 52, 50, 49], [68, 61, 53, 51, 50, 49], [58, 57, 55, 54, 52, 51], [56, 55, 54, 52, 49], [61, 54, 52, 51, 49], [49, 47], [61, 55, 52, 49], [57, 56, 52, 49], [68, 58, 56, 55, 51], [60, 54, 52, 50], [66, 63, 62, 61, 60, 58, 54], [61, 57, 52], [75, 73, 69, 68, 65, 63, 62, 61, 59], [64, 63, 62, 60, 58], [75, 71, 69, 64, 63, 62, 58], [66, 64, 63, 62, 60, 59], [75, 73, 71, 68, 66, 65, 63, 62, 59], [75, 73, 70, 66, 65, 63, 62, 59], [75, 73, 71, 69, 68, 67, 65, 64], [78, 75, 73, 72, 70, 67, 66, 65], [75, 73, 70, 65, 62], [76, 73, 69, 66, 64], [78, 73, 72, 67, 65], [81, 79, 78, 77, 74, 72, 67], [77, 76, 75, 72, 71, 69], [83, 78, 74, 72, 64], [87, 79, 78, 77, 74, 67], [83, 82, 81, 77, 74, 72], [92, 87, 82, 81, 70], [92, 83, 82, 81, 80, 77, 74], [92, 88, 81, 80, 74], [100, 84, 83, 76], [92, 88, 87, 85, 83, 80], [88, 87, 83, 81, 78], [80, 79, 77], [92, 88, 87, 86, 85, 80], [92, 87, 86, 84, 80], [87, 85, 80, 77], [101, 100, 99, 98, 97, 91, 86, 84], [100, 98, 97, 92, 91, 87, 84], [101, 98, 92, 88, 85, 82], [101, 100, 99, 97, 96, 91, 90, 88, 86], [100, 99, 98, 97, 84], [97, 91, 84], [101, 100, 98, 97, 94, 91, 90], [100, 99, 98, 95, 86], [97, 96, 90, 86], [98, 96, 91, 86], [90, 85], [96, 94, 89], [94, 89], [94, 89], [94, 93], [93], [95], [93], [99], [102], [102], [102], [102], [102], [102], [102], [102], [102], []]
letting durations = [[0], [2, 8, 9], [3, 4, 5], [1, 6, 8], [2, 3, 5], [6, 7, 8], [1, 4, 5], [3, 6, 9], [5, 5, 8], [3, 6, 6], [1, 6, 9], [2, 6, 8], [1, 1, 5], [3, 7, 10], [6, 7, 10], [4, 5, 9], [1, 6, 9], [1, 2, 7], [2, 5, 10], [3, 7, 9], [2, 4, 6], [1, 2, 3], [4, 5, 6], [4, 8, 8], [3, 6, 10], [2, 6, 10], [3, 6, 7], [2, 6, 7], [4, 6, 8], [1, 6, 9], [5, 7, 8], [6, 10, 10], [2, 4, 10], [9, 10, 10], [6, 9, 10], [1, 9, 10], [2, 3, 9], [2, 7, 8], [5, 9, 10], [2, 7, 8], [2, 3, 5], [2, 2, 5], [8, 9, 10], [1, 7, 7], [5, 6, 9], [3, 3, 9], [1, 3, 9], [3, 4, 5], [3, 7, 9], [1, 4, 7], [1, 8, 10], [6, 6, 9], [2, 8, 9], [7, 8, 9], [2, 6, 7], [2, 7, 8], [5, 7, 10], [7, 9, 9], [1, 3, 4], [3, 5, 10], [2, 3, 10], [3, 4, 9], [4, 4, 8], [3, 6, 9], [3, 4, 4], [7, 8, 9], [3, 6, 10], [5, 7, 7], [2, 5, 9], [3, 5, 7], [2, 2, 6], [1, 6, 10], [4, 5, 6], [3, 8, 10], [3, 5, 7], [3, 9, 9], [2, 3, 8], [2, 3, 8], [2, 4, 4], [2, 8, 8], [6, 7, 8], [2, 3, 4], [1, 7, 9], [5, 6, 6], [3, 3, 9], [1, 4, 5], [4, 4, 9], [1, 9, 10], [5, 7, 8], [1, 4, 5], [3, 9, 9], [1, 5, 6], [4, 7, 8], [3, 8, 9], [1, 7, 7], [4, 6, 7], [2, 7, 10], [4, 6, 9], [7, 8, 9], [2, 6, 8], [5, 9, 9], [0]]
letting resourceUsage = [[[0, 0, 0, 0]], [[0, 5, 9, 0], [0, 5, 8, 0], [0, 5, 0, 3]], [[1, 0, 0, 8], [1, 0, 2, 0], [0, 2, 1, 0]], [[0, 3, 7, 0], [0, 3, 6, 0], [0, 3, 0, 4]], [[0, 3, 6, 0], [5, 0, 0, 5], [5, 0, 0, 4]], [[3, 0, 0, 8], [0, 2, 9, 0], [3, 0, 0, 6]], [[5, 0, 3, 0], [4, 0, 0, 6], [3, 0, 0, 6]], [[3, 0, 8, 0], [3, 0, 0, 7], [0, 1, 7, 0]], [[0, 4, 0, 4], [3, 0, 1, 0], [3, 0, 0, 2]], [[4, 0, 0, 8], [0, 3, 1, 0], [1, 0, 0, 4]], [[3, 0, 0, 7], [0, 1, 0, 6], [0, 1, 0, 4]], [[3, 0, 0, 8], [0, 2, 0, 8], [1, 0, 0, 8]], [[0, 4, 9, 0], [0, 4, 0, 4], [0, 3, 0, 2]], [[0, 3, 0, 7], [0, 2, 0, 5], [0, 2, 0, 3]], [[0, 5, 3, 0], [1, 0, 0, 5], [0, 5, 2, 0]], [[0, 4, 7, 0], [0, 4, 0, 2], [0, 4, 0, 1]], [[0, 3, 8, 0], [2, 0, 0, 5], [0, 1, 0, 4]], [[0, 3, 8, 0], [0, 2, 4, 0], [0, 1, 3, 0]], [[4, 0, 5, 0], [0, 3, 0, 2], [0, 3, 0, 1]], [[5, 0, 0, 7], [0, 2, 0, 6], [2, 0, 9, 0]], [[0, 4, 0, 9], [1, 0, 3, 0], [0, 3, 0, 4]], [[4, 0, 0, 7], [0, 4, 0, 3], [2, 0, 0, 2]], [[4, 0, 3, 0], [0, 4, 2, 0], [0, 2, 1, 0]], [[4, 0, 0, 8], [4, 0, 0, 4], [0, 2, 0, 4]], [[5, 0, 0, 6], [0, 4, 7, 0], [0, 4, 0, 4]], [[0, 4, 0, 6], [0, 4, 0, 5], [1, 0, 5, 0]], [[4, 0, 8, 0], [0, 4, 0, 7], [4, 0, 0, 6]], [[0, 5, 0, 8], [2, 0, 0, 6], [1, 0, 0, 3]], [[0, 3, 5, 0], [4, 0, 0, 8], [3, 0, 1, 0]], [[0, 3, 0, 7], [2, 0, 6, 0], [1, 0, 0, 5]], [[5, 0, 0, 8], [0, 3, 2, 0], [2, 0, 2, 0]], [[0, 4, 0, 2], [1, 0, 5, 0], [0, 3, 0, 2]], [[0, 5, 6, 0], [3, 0, 6, 0], [2, 0, 6, 0]], [[4, 0, 10, 0], [0, 3, 0, 4], [4, 0, 0, 3]], [[0, 3, 9, 0], [1, 0, 3, 0], [1, 0, 0, 1]], [[3, 0, 0, 5], [3, 0, 0, 4], [0, 3, 3, 0]], [[0, 1, 10, 0], [0, 1, 0, 4], [0, 1, 5, 0]], [[0, 3, 9, 0], [0, 2, 0, 9], [0, 2, 0, 8]], [[0, 3, 8, 0], [0, 3, 7, 0], [0, 3, 6, 0]], [[4, 0, 0, 6], [4, 0, 0, 4], [4, 0, 8, 0]], [[0, 5, 8, 0], [4, 0, 4, 0], [0, 2, 0, 5]], [[4, 0, 8, 0], [0, 2, 0, 5], [2, 0, 4, 0]], [[0, 4, 0, 6], [0, 3, 6, 0], [2, 0, 2, 0]], [[0, 4, 6, 0], [3, 0, 6, 0], [0, 2, 1, 0]], [[0, 5, 7, 0], [3, 0, 0, 2], [3, 0, 0, 1]], [[0, 4, 8, 0], [0, 2, 0, 6], [2, 0, 0, 6]], [[4, 0, 0, 4], [0, 2, 0, 2], [0, 2, 4, 0]], [[4, 0, 0, 7], [3, 0, 0, 7], [3, 0, 0, 4]], [[0, 2, 0, 2], [0, 2, 0, 1], [0, 2, 7, 0]], [[0, 3, 0, 9], [0, 3, 4, 0], [0, 1, 4, 0]], [[4, 0, 0, 5], [0, 3, 0, 5], [0, 3, 1, 0]], [[2, 0, 0, 3], [0, 3, 2, 0], [0, 3, 0, 3]], [[3, 0, 0, 5], [1, 0, 0, 4], [1, 0, 2, 0]], [[0, 3, 0, 9], [1, 0, 3, 0], [0, 3, 0, 6]], [[2, 0, 0, 7], [0, 3, 4, 0], [0, 1, 4, 0]], [[3, 0, 6, 0], [2, 0, 3, 0], [0, 1, 3, 0]], [[0, 3, 0, 6], [0, 2, 0, 6], [0, 2, 5, 0]], [[0, 5, 8, 0], [2, 0, 5, 0], [0, 3, 5, 0]], [[4, 0, 5, 0], [3, 0, 5, 0], [2, 0, 5, 0]], [[0, 3, 2, 0], [0, 2, 0, 5], [0, 1, 0, 1]], [[3, 0, 0, 3], [0, 3, 0, 3], [0, 3, 0, 2]], [[0, 3, 4, 0], [0, 3, 0, 7], [3, 0, 0, 4]], [[0, 3, 8, 0], [3, 0, 0, 8], [2, 0, 0, 7]], [[0, 1, 0, 6], [0, 1, 6, 0], [4, 0, 2, 0]], [[0, 4, 7, 0], [0, 3, 5, 0], [0, 1, 0, 1]], [[0, 4, 6, 0], [0, 4, 5, 0], [1, 0, 5, 0]], [[0, 3, 5, 0], [3, 0, 0, 3], [0, 3, 2, 0]], [[0, 2, 8, 0], [0, 1, 7, 0], [0, 1, 0, 5]], [[0, 3, 9, 0], [0, 3, 0, 6], [1, 0, 0, 5]], [[0, 1, 0, 8], [3, 0, 0, 7], [0, 1, 2, 0]], [[0, 3, 8, 0], [0, 2, 0, 6], [1, 0, 0, 5]], [[4, 0, 5, 0], [0, 4, 0, 6], [2, 0, 5, 0]], [[3, 0, 5, 0], [2, 0, 0, 7], [0, 4, 2, 0]], [[4, 0, 0, 10], [0, 1, 7, 0], [0, 1, 0, 9]], [[3, 0, 0, 3], [2, 0, 8, 0], [0, 3, 0, 2]], [[0, 3, 7, 0], [0, 3, 0, 6], [2, 0, 0, 6]], [[2, 0, 0, 7], [0, 2, 0, 5], [2, 0, 0, 4]], [[0, 5, 7, 0], [3, 0, 0, 2], [0, 5, 6, 0]], [[4, 0, 5, 0], [3, 0, 4, 0], [0, 4, 0, 7]], [[0, 5, 0, 8], [0, 3, 0, 5], [2, 0, 0, 4]], [[0, 2, 0, 7], [0, 1, 0, 7], [0, 1, 4, 0]], [[5, 0, 3, 0], [5, 0, 0, 5], [5, 0, 0, 2]], [[0, 3, 0, 9], [4, 0, 7, 0], [4, 0, 6, 0]], [[2, 0, 0, 7], [0, 1, 0, 6], [2, 0, 4, 0]], [[5, 0, 0, 8], [0, 5, 0, 7], [0, 5, 0, 6]], [[0, 3, 0, 8], [0, 2, 6, 0], [0, 2, 4, 0]], [[3, 0, 7, 0], [0, 3, 6, 0], [3, 0, 6, 0]], [[0, 4, 8, 0], [2, 0, 0, 7], [0, 2, 0, 6]], [[0, 2, 5, 0], [1, 0, 0, 5], [1, 0, 0, 4]], [[0, 4, 0, 9], [0, 3, 0, 7], [0, 2, 2, 0]], [[2, 0, 0, 8], [2, 0, 0, 7], [0, 2, 1, 0]], [[0, 5, 6, 0], [0, 4, 0, 5], [0, 3, 3, 0]], [[0, 3, 0, 6], [0, 3, 0, 4], [4, 0, 0, 3]], [[3, 0, 9, 0], [3, 0, 8, 0], [3, 0, 7, 0]], [[0, 5, 7, 0], [3, 0, 5, 0], [1, 0, 0, 6]], [[0, 5, 0, 2], [2, 0, 7, 0], [2, 0, 5, 0]], [[4, 0, 7, 0], [2, 0, 4, 0], [2, 0, 3, 0]], [[3, 0, 5, 0], [1, 0, 0, 6], [1, 0, 0, 5]], [[0, 3, 7, 0], [0, 2, 7, 0], [0, 2, 6, 0]], [[4, 0, 0, 7], [0, 3, 5, 0], [0, 2, 5, 0]], [[0, 4, 3, 0], [0, 4, 2, 0], [0, 4, 0, 6]], [[0, 0, 0, 0]]]
